c preprocessed version of FoldedCubeGraph_7, 64 vertices, 224 edges
p td 64 224
0 1
0 8
0 12
0 26
0 34
0 60
0 62
1 9
1 23
1 27
1 45
1 59
1 63
2 3
2 6
2 19
2 37
2 49
3 7
3 20
3 38
3 48
4 5
4 6
4 21
4 39
4 47
5 7
5 22
5 40
5 46
6 7
6 24
6 41
6 44
7 25
7 42
7 43
8 9
8 10
8 13
8 17
8 42
8 43
9 11
9 14
9 18
9 41
9 44
10 11
10 15
10 19
10 40
10 46
11 16
11 20
11 39
11 47
12 2
12 10
12 23
12 28
12 56
12 58
13 14
13 15
13 21
13 38
13 48
14 16
14 22
14 37
14 49
15 16
15 24
15 36
15 50
16 25
16 35
16 51
17 18
17 19
17 21
17 33
17 52
18 20
18 22
18 32
18 53
19 20
19 24
19 31
19 54
20 25
20 30
20 55
21 22
21 24
21 29
21 57
22 25
22 28
22 58
23 3
23 11
23 29
23 57
23 61
24 25
24 27
24 59
25 26
25 60
26 27
26 28
26 30
26 35
26 43
27 29
27 31
27 36
27 44
28 29
28 32
28 37
28 46
29 33
29 38
29 47
30 31
30 32
30 39
30 48
31 33
31 40
31 49
32 33
32 41
32 50
33 42
33 51
34 4
34 13
34 30
34 45
34 55
34 56
35 36
35 37
35 39
35 52
36 38
36 40
36 53
37 38
37 41
37 54
38 42
38 55
39 40
39 41
39 57
40 42
40 58
41 42
41 59
42 60
43 44
43 46
43 48
43 52
44 47
44 49
44 53
45 5
45 14
45 31
45 54
45 61
46 47
46 50
46 54
47 51
47 55
48 49
48 50
48 57
49 51
49 58
50 51
50 59
51 60
52 53
52 54
52 57
53 55
53 58
54 55
54 59
55 60
56 6
56 15
56 32
56 53
56 61
57 58
57 59
58 60
59 60
61 7
61 16
61 33
61 52
62 2
62 4
62 17
62 35
62 51
62 63
63 3
63 5
63 18
63 36
63 50
